30
2	3	5	6	12	14	17	18	19	20	22	24	25	0
1	3	5	7	8	9	10	11	12	13	14	19	20	21	22	24	26	27	0
1	2	4	5	8	9	10	11	12	16	17	18	19	21	23	25	26	27	29	0
3	6	7	8	12	17	18	19	23	24	25	26	27	0
1	2	3	7	10	11	14	16	18	21	25	26	29	0
1	4	8	9	10	11	14	20	24	25	27	28	30	0
2	4	5	8	10	12	15	16	17	18	20	22	23	25	26	29	0
2	3	4	6	7	9	10	12	13	14	15	20	23	24	27	28	29	30	0
2	3	6	8	10	11	12	13	15	17	21	29	0
2	3	5	6	7	8	9	11	12	13	16	17	18	19	20	26	28	30	0
2	3	5	6	9	10	13	14	15	18	19	22	24	25	27	30	0
1	2	3	4	7	8	9	10	14	15	16	17	18	19	20	21	23	25	30	0
2	8	9	10	11	14	17	20	22	23	25	27	28	30	0
1	2	5	6	8	11	12	13	16	20	22	24	28	29	0
7	8	9	11	12	17	18	19	21	22	24	26	27	28	0
3	5	7	10	12	14	17	19	23	24	27	30	0
1	3	4	7	9	10	12	13	15	16	18	24	25	26	27	29	0
1	3	4	5	7	10	11	12	15	17	19	21	22	28	0
1	2	3	4	10	11	12	15	16	18	20	21	23	26	28	29	30	0
1	2	6	7	8	10	12	13	14	19	23	28	29	0
2	3	5	9	12	15	18	19	22	23	24	25	26	0
1	2	7	11	13	14	15	18	21	24	25	27	30	0
3	4	7	8	12	13	16	19	20	21	25	28	30	0
1	2	4	6	8	11	14	15	16	17	21	22	30	0
1	3	4	5	6	7	11	12	13	17	21	22	23	27	28	0
2	3	4	5	7	10	15	17	19	21	0
2	3	4	6	8	11	13	15	16	17	22	25	28	0
6	8	10	13	14	15	18	19	20	23	25	27	29	30	0
3	5	7	8	9	14	17	19	20	28	30	0
6	8	10	11	12	13	16	19	22	23	24	28	29	0


comments:
random graph
nodes 30
edges 215
rng seed 225 
